(set-logic ALL)
(declare-const BAV1 Bool)
(declare-const BAV2 Bool)
(declare-const x Int)
(declare-const a Int)
(declare-const b Int)
(assert (and (pto x a) (pto x b)))
(assert (not (= a b)))
(assert (= BAV1 (and (pto x a) (pto x b))))
(assert (= BAV2 (= a b)))
(check-sat)
(get-model)